presolving:
(round 1, fast)       14 del vars, 0 del conss, 0 add conss, 0 chg bounds, 0 chg sides, 0 chg coeffs, 0 upgd conss, 0 impls, 502 clqs
   (0.1s) running MILP presolver
   (0.2s) MILP presolver found nothing
(round 2, exhaustive) 14 del vars, 0 del conss, 0 add conss, 0 chg bounds, 0 chg sides, 0 chg coeffs, 2076 upgd conss, 0 impls, 502 clqs
   (0.3s) probing: 51/7500 (0.7%) - 0 fixings, 0 aggregations, 0 implications, 0 bound changes
   (0.3s) probing aborted: 50/50 successive totally useless probings
   (0.7s) symmetry computation started: requiring (bin +, int -, cont +), (fixed: bin -, int +, cont -)
   (0.7s) symmetry computation finished: 2 generators found (max: 1500, log10 of symmetry group size: 0.6)
(round 3, exhaustive) 16 del vars, 0 del conss, 2 add conss, 0 chg bounds, 0 chg sides, 0 chg coeffs, 2076 upgd conss, 0 impls, 502 clqs
   (0.7s) probing: 56/7500 (0.7%) - 0 fixings, 0 aggregations, 0 implications, 0 bound changes
   (0.7s) probing aborted: 50/50 successive totally useless probings
presolving (4 rounds: 4 fast, 3 medium, 3 exhaustive):
 16 deleted vars, 0 deleted constraints, 2 added constraints, 0 tightened bounds, 0 added holes, 0 changed sides, 0 changed coefficients
 0 implications, 502 cliques
presolved problem has 7498 variables (7498 bin, 0 int, 0 impl, 0 cont) and 2078 constraints
     14 constraints of type <knapsack>
    502 constraints of type <setppc>
      2 constraints of type <orbitope>
   1560 constraints of type <logicor>
transformed objective value is always integral (scale: 1)
Presolving Time: 0.72

 time | node  | left  |LP iter|LP it/n|mem/heur|mdpt |vars |cons |rows |cuts |sepa|confs|strbr|  dualbound   | primalbound  |  gap   | compl. 
p 0.9s|     1 |     0 |     0 |     - |  clique|   0 |7498 |2078 |2076 |   0 |  0 |   0 |   0 | 0.000000e+00 | 1.455100e+04 |    Inf | unknown
p 1.1s|     1 |     0 |     0 |     - | vbounds|   0 |7498 |2078 |2076 |   0 |  0 |   1 |   0 | 0.000000e+00 | 1.407200e+04 |    Inf | unknown
p 1.3s|     1 |     0 |     0 |     - | vbounds|   0 |7498 |2092 |2076 |   0 |  0 |  16 |   0 | 0.000000e+00 | 1.406800e+04 |    Inf | unknown
  1.4s|     1 |     0 |   775 |     - |   239M |   0 |7498 |2092 |2076 |   0 |  0 |  16 |   0 | 1.013675e+03 | 1.406800e+04 |1287.82%| unknown
r 1.4s|     1 |     0 |   775 |     - |rounding|   0 |7498 |2082 |2076 |   0 |  0 |  16 |   0 | 1.013675e+03 | 3.270000e+03 | 222.59%| unknown
r 1.4s|     1 |     0 |   775 |     - |shifting|   0 |7498 |2082 |2076 |   0 |  0 |  16 |   0 | 1.013675e+03 | 3.186000e+03 | 214.30%| unknown
  1.9s|     1 |     0 |   817 |     - |   244M |   0 |7498 |2082 |2077 |   1 |  1 |  16 |   0 | 1.016961e+03 | 3.186000e+03 | 213.29%| unknown
r 1.9s|     1 |     0 |   817 |     - |rounding|   0 |7498 |2082 |2077 |   1 |  1 |  16 |   0 | 1.016961e+03 | 3.068000e+03 | 201.68%| unknown
r 1.9s|     1 |     0 |   817 |     - |shifting|   0 |7498 |2082 |2077 |   1 |  1 |  16 |   0 | 1.016961e+03 | 3.061000e+03 | 200.99%| unknown
  2.0s|     1 |     0 |   856 |     - |   247M |   0 |7498 |2082 |2078 |   2 |  2 |  16 |   0 | 1.018858e+03 | 3.061000e+03 | 200.43%| unknown
r 2.0s|     1 |     0 |   856 |     - |rounding|   0 |7498 |2082 |2078 |   2 |  2 |  16 |   0 | 1.018858e+03 | 3.032000e+03 | 197.59%| unknown
r 2.0s|     1 |     0 |   856 |     - |shifting|   0 |7498 |2082 |2078 |   2 |  2 |  16 |   0 | 1.018858e+03 | 3.001000e+03 | 194.55%| unknown
  2.1s|     1 |     0 |   906 |     - |   252M |   0 |7498 |2082 |2079 |   3 |  3 |  16 |   0 | 1.021046e+03 | 3.001000e+03 | 193.91%| unknown
r 2.1s|     1 |     0 |   906 |     - |rounding|   0 |7498 |2081 |2079 |   3 |  3 |  16 |   0 | 1.021046e+03 | 3.000000e+03 | 193.82%| unknown
  2.2s|     1 |     0 |   973 |     - |   255M |   0 |7498 |2081 |2080 |   4 |  4 |  16 |   0 | 1.022487e+03 | 3.000000e+03 | 193.40%| unknown
 time | node  | left  |LP iter|LP it/n|mem/heur|mdpt |vars |cons |rows |cuts |sepa|confs|strbr|  dualbound   | primalbound  |  gap   | compl. 
  2.3s|     1 |     0 |  1079 |     - |   259M |   0 |7498 |2081 |2081 |   5 |  5 |  16 |   0 | 1.024737e+03 | 3.000000e+03 | 192.76%| unknown
  2.4s|     1 |     0 |  1120 |     - |   263M |   0 |7498 |2081 |2082 |   6 |  6 |  16 |   0 | 1.024940e+03 | 3.000000e+03 | 192.70%| unknown
  2.5s|     1 |     0 |  1165 |     - |   266M |   0 |7498 |2081 |2083 |   7 |  7 |  16 |   0 | 1.025137e+03 | 3.000000e+03 | 192.64%| unknown
  2.7s|     1 |     0 |  1226 |     - |   270M |   0 |7498 |2081 |2084 |   8 |  8 |  16 |   0 | 1.025489e+03 | 3.000000e+03 | 192.54%| unknown
  2.8s|     1 |     0 |  1263 |     - |   273M |   0 |7498 |2081 |2085 |   9 |  9 |  16 |   0 | 1.025595e+03 | 3.000000e+03 | 192.51%| unknown
r 2.8s|     1 |     0 |  1263 |     - |rounding|   0 |7498 |2081 |2085 |   9 |  9 |  16 |   0 | 1.025595e+03 | 2.984000e+03 | 190.95%| unknown
  2.9s|     1 |     0 |  1284 |     - |   277M |   0 |7498 |2081 |2086 |  10 | 10 |  16 |   0 | 1.025686e+03 | 2.984000e+03 | 190.93%| unknown
r 2.9s|     1 |     0 |  1284 |     - |rounding|   0 |7498 |2081 |2086 |  10 | 10 |  16 |   0 | 1.025686e+03 | 2.979000e+03 | 190.44%| unknown
r 2.9s|     1 |     0 |  1284 |     - |shifting|   0 |7498 |2081 |2086 |  10 | 10 |  16 |   0 | 1.025686e+03 | 2.948000e+03 | 187.42%| unknown
  3.0s|     1 |     0 |  1304 |     - |   277M |   0 |7498 |2081 |2087 |  11 | 11 |  16 |   0 | 1.025809e+03 | 2.948000e+03 | 187.38%| unknown
r 3.0s|     1 |     0 |  1304 |     - |rounding|   0 |7498 |2081 |2087 |  11 | 11 |  16 |   0 | 1.025809e+03 | 2.941000e+03 | 186.70%| unknown
  3.0s|     1 |     0 |  1327 |     - |   279M |   0 |7498 |2081 |2088 |  12 | 12 |  16 |   0 | 1.025840e+03 | 2.941000e+03 | 186.69%| unknown
r 3.0s|     1 |     0 |  1327 |     - |rounding|   0 |7498 |2081 |2088 |  12 | 12 |  16 |   0 | 1.025840e+03 | 2.928000e+03 | 185.42%| unknown
r 3.0s|     1 |     0 |  1327 |     - |shifting|   0 |7498 |2081 |2088 |  12 | 12 |  16 |   0 | 1.025840e+03 | 2.897000e+03 | 182.40%| unknown
  3.1s|     1 |     0 |  1332 |     - |   279M |   0 |7498 |2081 |2089 |  13 | 13 |  16 |   0 | 1.025850e+03 | 2.897000e+03 | 182.40%| unknown
 time | node  | left  |LP iter|LP it/n|mem/heur|mdpt |vars |cons |rows |cuts |sepa|confs|strbr|  dualbound   | primalbound  |  gap   | compl. 
r 3.1s|     1 |     0 |  1332 |     - |rounding|   0 |7498 |2081 |2089 |  13 | 13 |  16 |   0 | 1.025850e+03 | 2.873000e+03 | 180.06%| unknown
  3.1s|     1 |     0 |  1341 |     - |   279M |   0 |7498 |2081 |2090 |  14 | 14 |  16 |   0 | 1.025872e+03 | 2.873000e+03 | 180.05%| unknown
  3.2s|     1 |     0 |  1372 |     - |   279M |   0 |7498 |2081 |2091 |  15 | 15 |  16 |   0 | 1.025939e+03 | 2.873000e+03 | 180.04%| unknown
  3.2s|     1 |     0 |  1395 |     - |   279M |   0 |7498 |2081 |2092 |  16 | 16 |  16 |   0 | 1.026018e+03 | 2.873000e+03 | 180.01%| unknown
  3.2s|     1 |     0 |  1425 |     - |   280M |   0 |7498 |2081 |2093 |  17 | 17 |  16 |   0 | 1.026272e+03 | 2.873000e+03 | 179.95%| unknown
r 3.2s|     1 |     0 |  1425 |     - |rounding|   0 |7498 |2081 |2093 |  17 | 17 |  16 |   0 | 1.026272e+03 | 2.844000e+03 | 177.12%| unknown
  3.3s|     1 |     0 |  1458 |     - |   280M |   0 |7498 |2081 |2094 |  18 | 18 |  16 |   0 | 1.026423e+03 | 2.844000e+03 | 177.08%| unknown
  3.3s|     1 |     0 |  1487 |     - |   280M |   0 |7498 |2081 |2095 |  19 | 19 |  16 |   0 | 1.026516e+03 | 2.844000e+03 | 177.05%| unknown
  3.4s|     1 |     0 |  1516 |     - |   280M |   0 |7498 |2081 |2096 |  20 | 20 |  16 |   0 | 1.026602e+03 | 2.844000e+03 | 177.03%| unknown
  3.4s|     1 |     0 |  1529 |     - |   280M |   0 |7498 |2081 |2097 |  21 | 21 |  16 |   0 | 1.026662e+03 | 2.844000e+03 | 177.01%| unknown
  3.4s|     1 |     0 |  1545 |     - |   280M |   0 |7498 |2081 |2098 |  22 | 22 |  16 |   0 | 1.026762e+03 | 2.844000e+03 | 176.99%| unknown
  3.5s|     1 |     0 |  1553 |     - |   280M |   0 |7498 |2081 |2098 |  23 | 23 |  16 |   0 | 1.026792e+03 | 2.844000e+03 | 176.98%| unknown
d 4.2s|     1 |     0 |  2773 |     - |farkasdi|   0 |7498 |2081 |2098 |   0 | 25 |  16 |   0 | 1.026792e+03 | 1.553000e+03 |  51.25%| unknown
L 6.2s|     1 |     0 |  3642 |     - |    rens|   0 |7498 |2082 |2098 |  23 | 25 |  27 |   0 | 1.026792e+03 | 1.346000e+03 |  31.09%| unknown
  6.3s|     1 |     0 |  3642 |     - |   281M |   0 |7498 |2082 |2098 |  23 | 25 |  27 |   0 | 1.026792e+03 | 1.346000e+03 |  31.09%| unknown
 time | node  | left  |LP iter|LP it/n|mem/heur|mdpt |vars |cons |rows |cuts |sepa|confs|strbr|  dualbound   | primalbound  |  gap   | compl. 
  6.3s|     1 |     0 |  3642 |     - |   281M |   0 |7498 |2082 |1785 |  23 | 25 |  27 |   0 | 1.026792e+03 | 1.346000e+03 |  31.09%| unknown
  6.4s|     1 |     0 |  3645 |     - |   281M |   0 |7498 |1766 |1786 |  24 | 26 |  27 |   0 | 1.026802e+03 | 1.346000e+03 |  31.09%| unknown
  6.4s|     1 |     0 |  3651 |     - |   281M |   0 |7498 |1766 |1786 |  25 | 27 |  27 |   0 | 1.026817e+03 | 1.346000e+03 |  31.08%| unknown
  6.4s|     1 |     0 |  3651 |     - |   281M |   0 |7498 |1766 |1786 |  25 | 27 |  27 |   0 | 1.026817e+03 | 1.346000e+03 |  31.08%| unknown
  6.4s|     1 |     0 |  3662 |     - |   281M |   0 |7498 |1766 |1787 |  26 | 28 |  27 |   0 | 1.026849e+03 | 1.346000e+03 |  31.08%| unknown
(run 1, node 1) restarting after 4665 global fixings of integer variables

(restart) converted 24 cuts from the global cut pool into linear constraints

presolving:
(round 1, fast)       4665 del vars, 0 del conss, 0 add conss, 0 chg bounds, 0 chg sides, 82286 chg coeffs, 0 upgd conss, 0 impls, 189 clqs
(round 2, exhaustive) 4665 del vars, 0 del conss, 0 add conss, 0 chg bounds, 0 chg sides, 82286 chg coeffs, 13 upgd conss, 0 impls, 189 clqs
presolving (3 rounds: 3 fast, 2 medium, 2 exhaustive):
 4665 deleted vars, 0 deleted constraints, 0 added constraints, 0 tightened bounds, 0 added holes, 0 changed sides, 82286 changed coefficients
 0 implications, 189 cliques
presolved problem has 2833 variables (2833 bin, 0 int, 0 impl, 0 cont) and 1790 constraints
     27 constraints of type <knapsack>
    189 constraints of type <setppc>
     12 constraints of type <linear>
      2 constraints of type <orbitope>
   1560 constraints of type <logicor>
transformed objective value is always integral (scale: 1)
Presolving Time: 0.82
transformed 20/23 original solutions to the transformed problem space

 time | node  | left  |LP iter|LP it/n|mem/heur|mdpt |vars |cons |rows |cuts |sepa|confs|strbr|  dualbound   | primalbound  |  gap   | compl. 
  6.7s|     1 |     0 |  4370 |     - |   269M |   0 |2833 |1790 |1787 |   0 |  0 |  27 |   0 | 1.026849e+03 | 1.346000e+03 |  31.08%| unknown
  6.9s|     1 |     0 |  4400 |     - |   269M |   0 |2833 |1790 |1788 |   1 |  1 |  27 |   0 | 1.027231e+03 | 1.346000e+03 |  31.03%| unknown
  7.0s|     1 |     0 |  4438 |     - |   270M |   0 |2833 |1790 |1789 |   2 |  2 |  27 |   0 | 1.027626e+03 | 1.346000e+03 |  30.98%| unknown
  7.1s|     1 |     0 |  4462 |     - |   271M |   0 |2833 |1790 |1790 |   3 |  3 |  27 |   0 | 1.027792e+03 | 1.346000e+03 |  30.96%| unknown
  7.2s|     1 |     0 |  4486 |     - |   273M |   0 |2833 |1790 |1791 |   4 |  4 |  27 |   0 | 1.027914e+03 | 1.346000e+03 |  30.94%| unknown
  7.3s|     1 |     0 |  4524 |     - |   275M |   0 |2833 |1790 |1792 |   5 |  5 |  27 |   0 | 1.028080e+03 | 1.346000e+03 |  30.92%| unknown
  7.4s|     1 |     0 |  4578 |     - |   276M |   0 |2833 |1790 |1793 |   6 |  6 |  27 |   0 | 1.028279e+03 | 1.346000e+03 |  30.90%| unknown
  7.5s|     1 |     0 |  4607 |     - |   279M |   0 |2833 |1790 |1794 |   7 |  7 |  27 |   0 | 1.028396e+03 | 1.346000e+03 |  30.88%| unknown
  7.6s|     1 |     0 |  4623 |     - |   281M |   0 |2833 |1790 |1795 |   8 |  8 |  27 |   0 | 1.028441e+03 | 1.346000e+03 |  30.88%| unknown
  7.7s|     1 |     0 |  4642 |     - |   282M |   0 |2833 |1790 |1796 |   9 |  9 |  27 |   0 | 1.028506e+03 | 1.346000e+03 |  30.87%| unknown
  7.8s|     1 |     0 |  4704 |     - |   284M |   0 |2833 |1790 |1794 |  10 | 10 |  27 |   0 | 1.028663e+03 | 1.346000e+03 |  30.85%| unknown
  7.8s|     1 |     0 |  4725 |     - |   284M |   0 |2833 |1790 |1795 |  11 | 11 |  27 |   0 | 1.028729e+03 | 1.346000e+03 |  30.84%| unknown
  7.8s|     1 |     0 |  4736 |     - |   284M |   0 |2833 |1790 |1796 |  12 | 12 |  27 |   0 | 1.028759e+03 | 1.346000e+03 |  30.84%| unknown
  7.9s|     1 |     0 |  4751 |     - |   284M |   0 |2833 |1790 |1797 |  13 | 13 |  27 |   0 | 1.028807e+03 | 1.346000e+03 |  30.83%| unknown
  7.9s|     1 |     0 |  4762 |     - |   284M |   0 |2833 |1790 |1798 |  14 | 14 |  27 |   0 | 1.028831e+03 | 1.346000e+03 |  30.83%| unknown
 time | node  | left  |LP iter|LP it/n|mem/heur|mdpt |vars |cons |rows |cuts |sepa|confs|strbr|  dualbound   | primalbound  |  gap   | compl. 
  8.0s|     1 |     0 |  4778 |     - |   285M |   0 |2833 |1790 |1799 |  15 | 15 |  27 |   0 | 1.028876e+03 | 1.346000e+03 |  30.82%| unknown
  8.0s|     1 |     0 |  4794 |     - |   285M |   0 |2833 |1790 |1795 |  16 | 16 |  27 |   0 | 1.028911e+03 | 1.346000e+03 |  30.82%| unknown
  8.1s|     1 |     0 |  4810 |     - |   285M |   0 |2833 |1790 |1796 |  17 | 17 |  27 |   0 | 1.028934e+03 | 1.346000e+03 |  30.81%| unknown
  8.1s|     1 |     0 |  4839 |     - |   285M |   0 |2833 |1790 |1797 |  18 | 18 |  27 |   0 | 1.028955e+03 | 1.346000e+03 |  30.81%| unknown
  8.2s|     1 |     0 |  4845 |     - |   285M |   0 |2833 |1790 |1798 |  19 | 19 |  27 |   0 | 1.028958e+03 | 1.346000e+03 |  30.81%| unknown
  8.2s|     1 |     0 |  4851 |     - |   285M |   0 |2833 |1790 |1799 |  20 | 20 |  27 |   0 | 1.028964e+03 | 1.346000e+03 |  30.81%| unknown
L11.3s|     1 |     0 |  9485 |     - |    rens|   0 |2833 |1851 |1799 |  20 | 20 |  88 |   0 | 1.028964e+03 | 1.329000e+03 |  29.16%| unknown
 11.3s|     1 |     0 |  9485 |     - |   286M |   0 |2833 |1851 |1799 |  20 | 20 |  88 |   0 | 1.028964e+03 | 1.329000e+03 |  29.16%| unknown
 11.3s|     1 |     0 |  9485 |     - |   286M |   0 |2833 |1851 |1794 |  20 | 20 |  88 |   0 | 1.028964e+03 | 1.329000e+03 |  29.16%| unknown
 11.3s|     1 |     0 |  9491 |     - |   286M |   0 |2833 |1846 |1795 |  21 | 21 |  88 |   0 | 1.028967e+03 | 1.329000e+03 |  29.16%| unknown
 11.4s|     1 |     0 |  9495 |     - |   286M |   0 |2833 |1846 |1792 |  22 | 22 |  88 |   0 | 1.028968e+03 | 1.329000e+03 |  29.16%| unknown
 11.5s|     1 |     2 |  9495 |     - |   286M |   0 |2833 |1846 |1792 |  22 | 22 |  88 |   1 | 1.044573e+03 | 1.329000e+03 |  27.23%| unknown
(run 2, node 1) restarting after 75 global fixings of integer variables

(restart) converted 20 cuts from the global cut pool into linear constraints

presolving:
(round 1, fast)       75 del vars, 0 del conss, 0 add conss, 0 chg bounds, 0 chg sides, 1350 chg coeffs, 0 upgd conss, 0 impls, 184 clqs
(round 2, exhaustive) 75 del vars, 0 del conss, 0 add conss, 0 chg bounds, 0 chg sides, 1350 chg coeffs, 9 upgd conss, 0 impls, 184 clqs
presolving (3 rounds: 3 fast, 2 medium, 2 exhaustive):
 75 deleted vars, 0 deleted constraints, 0 added constraints, 0 tightened bounds, 0 added holes, 0 changed sides, 1360 changed coefficients
 0 implications, 184 cliques
presolved problem has 2758 variables (2758 bin, 0 int, 0 impl, 0 cont) and 1866 constraints
     36 constraints of type <knapsack>
    184 constraints of type <setppc>
     24 constraints of type <linear>
      2 constraints of type <orbitope>
   1620 constraints of type <logicor>
transformed objective value is always integral (scale: 1)
Presolving Time: 0.90
transformed 21/24 original solutions to the transformed problem space

 time | node  | left  |LP iter|LP it/n|mem/heur|mdpt |vars |cons |rows |cuts |sepa|confs|strbr|  dualbound   | primalbound  |  gap   | compl. 
 11.7s|     1 |     0 | 10376 |     - |   285M |   0 |2758 |1866 |1802 |   0 |  0 |  88 |   1 | 1.044573e+03 | 1.329000e+03 |  27.23%| unknown
 12.0s|     1 |     0 | 10411 |     - |   285M |   0 |2758 |1866 |1803 |   1 |  1 |  88 |   1 | 1.044573e+03 | 1.329000e+03 |  27.23%| unknown
 12.1s|     1 |     0 | 10433 |     - |   285M |   0 |2758 |1866 |1804 |   2 |  2 |  88 |   1 | 1.044573e+03 | 1.329000e+03 |  27.23%| unknown
 12.2s|     1 |     0 | 10479 |     - |   285M |   0 |2758 |1866 |1805 |   3 |  3 |  88 |   1 | 1.044573e+03 | 1.329000e+03 |  27.23%| unknown
 12.4s|     1 |     0 | 10541 |     - |   287M |   0 |2758 |1866 |1806 |   4 |  4 |  88 |   1 | 1.044573e+03 | 1.329000e+03 |  27.23%| unknown
 12.5s|     1 |     0 | 10566 |     - |   288M |   0 |2758 |1866 |1807 |   5 |  5 |  88 |   1 | 1.044573e+03 | 1.329000e+03 |  27.23%| unknown
 12.6s|     1 |     0 | 10598 |     - |   290M |   0 |2758 |1866 |1808 |   6 |  6 |  88 |   1 | 1.044573e+03 | 1.329000e+03 |  27.23%| unknown
 12.8s|     1 |     0 | 10652 |     - |   293M |   0 |2758 |1866 |1809 |   7 |  7 |  88 |   1 | 1.044573e+03 | 1.329000e+03 |  27.23%| unknown
 13.0s|     1 |     0 | 10699 |     - |   295M |   0 |2758 |1866 |1810 |   8 |  8 |  88 |   1 | 1.044573e+03 | 1.329000e+03 |  27.23%| unknown
 13.1s|     1 |     0 | 10774 |     - |   297M |   0 |2758 |1866 |1811 |   9 |  9 |  88 |   1 | 1.044573e+03 | 1.329000e+03 |  27.23%| unknown
 13.2s|     1 |     0 | 10803 |     - |   300M |   0 |2758 |1866 |1812 |  10 | 10 |  88 |   1 | 1.044573e+03 | 1.329000e+03 |  27.23%| unknown
 13.3s|     1 |     0 | 10830 |     - |   300M |   0 |2758 |1866 |1800 |  11 | 11 |  88 |   1 | 1.044573e+03 | 1.329000e+03 |  27.23%| unknown
 15.0s|     1 |     2 | 11933 |     - |   300M |   0 |2758 |1886 |1800 |  11 | 11 | 108 |   2 | 1.044573e+03 | 1.329000e+03 |  27.23%| unknown
 25.2s|   100 |   101 | 35567 | 311.5 |   313M |  12 |2758 |2371 |1779 |  66 |  2 | 593 |  72 | 1.077191e+03 | 1.329000e+03 |  23.38%| unknown
 34.7s|   200 |   195 | 58487 | 270.5 |   321M |  14 |2758 |3020 |1774 | 142 |  2 |1264 | 102 | 1.132599e+03 | 1.329000e+03 |  17.34%| unknown
 time | node  | left  |LP iter|LP it/n|mem/heur|mdpt |vars |cons |rows |cuts |sepa|confs|strbr|  dualbound   | primalbound  |  gap   | compl. 
 41.7s|   300 |   287 | 75713 | 237.9 |   326M |  16 |2758 |3567 |1780 | 190 |  2 |1851 | 114 | 1.132599e+03 | 1.329000e+03 |  17.34%| unknown
 47.7s|   400 |   375 | 90781 | 216.1 |   330M |  17 |2758 |3898 |1779 | 239 |  2 |2307 | 117 | 1.166099e+03 | 1.329000e+03 |  13.97%|  28.00%
 53.5s|   500 |   463 |104142 | 199.7 |   338M |  18 |2758 |4191 |1782 | 305 |  2 |2764 | 122 | 1.172531e+03 | 1.329000e+03 |  13.34%|  31.41%
 58.7s|   600 |   525 |115440 | 185.2 |   340M |  18 |2758 |4307 |1779 | 366 |  0 |3113 | 128 | 1.199533e+03 | 1.329000e+03 |  10.79%|  36.04%
 63.9s|   700 |   589 |126932 | 175.2 |   342M |  18 |2758 |4314 |1774 | 438 |  2 |3414 | 132 | 1.209775e+03 | 1.329000e+03 |   9.86%|  40.22%
 68.0s|   800 |   633 |135742 | 164.3 |   344M |  19 |2758 |4339 |1779 | 477 |  0 |3699 | 141 | 1.221045e+03 | 1.329000e+03 |   8.84%|  43.82%
 70.6s|   900 |   657 |142596 | 153.7 |   344M |  19 |2758 |4346 |1779 | 492 |  2 |3902 | 154 | 1.222989e+03 | 1.329000e+03 |   8.67%|  45.76%
 74.1s|  1000 |   673 |150167 | 145.9 |   344M |  21 |2758 |4432 |1779 | 534 |  0 |4183 | 183 | 1.226595e+03 | 1.329000e+03 |   8.35%|  47.54%
 76.6s|  1100 |   675 |156024 | 138.0 |   344M |  21 |2758 |4496 |1779 | 564 |  0 |4388 | 207 | 1.232196e+03 | 1.329000e+03 |   7.86%|  48.55%
 78.9s|  1200 |   675 |161525 | 131.1 |   346M |  21 |2758 |4508 |1778 | 593 |  2 |4542 | 223 | 1.233191e+03 | 1.329000e+03 |   7.77%|  49.37%
 80.8s|  1300 |   687 |166829 | 125.1 |   348M |  21 |2758 |4443 |1779 | 610 |  0 |4596 | 228 | 1.236442e+03 | 1.329000e+03 |   7.49%|  51.31%
 82.8s|  1400 |   687 |171529 | 119.5 |   349M |  21 |2758 |4354 |1779 | 632 |  0 |4654 | 235 | 1.240457e+03 | 1.329000e+03 |   7.14%|  52.92%
 84.5s|  1500 |   679 |176100 | 114.6 |   349M |  21 |2758 |4313 |1779 | 643 |  1 |4745 | 243 | 1.240595e+03 | 1.329000e+03 |   7.13%|  53.70%
 86.6s|  1600 |   679 |181380 | 110.7 |   350M |  22 |2758 |4301 |1779 | 668 |  0 |4845 | 256 | 1.242757e+03 | 1.329000e+03 |   6.94%|  54.97%
 88.1s|  1700 |   667 |186199 | 107.0 |   350M |  22 |2758 |4241 |1778 | 676 |  0 |4938 | 270 | 1.247363e+03 | 1.329000e+03 |   6.54%|  56.25%
 time | node  | left  |LP iter|LP it/n|mem/heur|mdpt |vars |cons |rows |cuts |sepa|confs|strbr|  dualbound   | primalbound  |  gap   | compl. 
 89.3s|  1800 |   657 |189791 | 103.1 |   350M |  22 |2758 |4195 |1779 | 680 |  0 |5019 | 280 | 1.247796e+03 | 1.329000e+03 |   6.51%|  57.93%
 90.7s|  1900 |   646 |193673 |  99.7 |   351M |  24 |2758 |4083 |1782 | 692 |  2 |5051 | 285 | 1.250343e+03 | 1.329000e+03 |   6.29%|  59.05%
 92.0s|  2000 |   644 |197173 |  96.5 |   351M |  24 |2758 |4015 |1780 | 701 |  0 |5101 | 287 | 1.250587e+03 | 1.329000e+03 |   6.27%|  60.09%
 93.2s|  2100 |   626 |200888 |  93.7 |   352M |  24 |2758 |3990 |1783 | 707 |  2 |5194 | 296 | 1.251650e+03 | 1.329000e+03 |   6.18%|  61.70%
 94.8s|  2200 |   602 |204965 |  91.3 |   352M |  24 |2758 |3946 |1779 | 722 |  0 |5271 | 306 | 1.254950e+03 | 1.329000e+03 |   5.90%|  62.56%
 96.6s|  2300 |   582 |209273 |  89.2 |   352M |  24 |2758 |3870 |1779 | 747 |  0 |5332 | 315 | 1.256430e+03 | 1.329000e+03 |   5.78%|  64.11%
 98.1s|  2400 |   560 |213324 |  87.1 |   353M |  24 |2758 |3824 |1778 | 760 |  2 |5409 | 327 | 1.257610e+03 | 1.329000e+03 |   5.68%|  66.52%
  100s|  2500 |   528 |216835 |  85.1 |   353M |  24 |2758 |3770 |1788 | 791 |  0 |5491 | 339 | 1.261636e+03 | 1.329000e+03 |   5.34%|  68.53%
  101s|  2600 |   499 |220447 |  83.2 |   353M |  24 |2758 |3696 |1779 | 799 |  2 |5547 | 346 | 1.267265e+03 | 1.329000e+03 |   4.87%|  71.44%
  102s|  2700 |   459 |223301 |  81.2 |   353M |  24 |2758 |3606 |1779 | 806 |  2 |5557 | 349 | 1.269309e+03 | 1.329000e+03 |   4.70%|  72.57%
  104s|  2800 |   417 |226316 |  79.3 |   353M |  24 |2758 |3576 |1779 | 816 |  0 |5650 | 359 | 1.271782e+03 | 1.329000e+03 |   4.50%|  75.56%
  105s|  2900 |   385 |229467 |  77.7 |   353M |  24 |2758 |3502 |1781 | 828 |  0 |5690 | 362 | 1.275613e+03 | 1.329000e+03 |   4.19%|  77.15%
  106s|  3000 |   331 |232589 |  76.1 |   353M |  24 |2758 |3368 |1782 | 838 |  0 |5690 | 362 | 1.278509e+03 | 1.329000e+03 |   3.95%|  79.26%
  108s|  3100 |   283 |235748 |  74.7 |   353M |  24 |2758 |3292 |1778 | 849 |  0 |5736 | 367 | 1.281929e+03 | 1.329000e+03 |   3.67%|  80.71%
  109s|  3200 |   215 |238054 |  73.1 |   353M |  24 |2758 |3181 |1777 | 854 |  5 |5754 | 369 | 1.284728e+03 | 1.329000e+03 |   3.45%|  83.77%
 time | node  | left  |LP iter|LP it/n|mem/heur|mdpt |vars |cons |rows |cuts |sepa|confs|strbr|  dualbound   | primalbound  |  gap   | compl. 
  110s|  3300 |   139 |240343 |  71.6 |   354M |  24 |2758 |3060 |1811 | 860 |  0 |5763 | 371 | 1.292317e+03 | 1.329000e+03 |   2.84%|  87.53%
  111s|  3400 |    66 |242266 |  70.0 |   354M |  24 |2758 |2956 |1833 | 861 |  0 |5775 | 372 | 1.299835e+03 | 1.329000e+03 |   2.24%|  91.49%

SCIP Status        : problem is solved [optimal solution found]
Solving Time (sec) : 111.39
Solving Nodes      : 3469 (total of 3471 nodes in 3 runs)
Primal Bound       : +1.32900000000000e+03 (50 solutions)
Dual Bound         : +1.32900000000000e+03
Gap                : 0.00 %
Solve Status: optimal
Solve Time: 111.40 seconds
